(set-option :produce-models true)
(set-logic QF_UF)
(declare-fun p9() Bool)
(declare-fun p23() Bool)
(declare-fun p30() Bool)
(declare-fun p36() Bool)
(declare-fun p32() Bool)
(declare-fun p29() Bool)
(declare-fun p20() Bool)
(declare-fun p31() Bool)
(declare-fun p19() Bool)
(declare-fun p26() Bool)
(declare-fun p16() Bool)
(declare-fun p7() Bool)
(declare-fun p34() Bool)
(declare-fun p0() Bool)
(declare-fun p18() Bool)
(declare-fun p35() Bool)
(declare-fun p37() Bool)
(declare-fun p38() Bool)
(declare-fun p6() Bool)
(declare-fun p25() Bool)
(declare-fun p28() Bool)
(declare-fun p24() Bool)
(declare-fun p14() Bool)
(declare-fun p2() Bool)
(declare-fun p13() Bool)
(declare-fun p17() Bool)
(declare-fun p22() Bool)
(declare-fun p4() Bool)
(declare-fun p33() Bool)
(declare-fun p21() Bool)
(declare-fun p15() Bool)
(declare-fun p39() Bool)
(declare-fun p3() Bool)
(declare-fun p5() Bool)
(declare-fun p10() Bool)
(declare-fun p8() Bool)
(declare-fun p12() Bool)
(declare-fun p27() Bool)
(declare-fun p11() Bool)
(declare-fun p1() Bool)
(assert
(and (or (not p9) (not p23) (not p30)) (or p36 (not p32) (not p29)) (or (not p20) (not p31) (not p36)) (or (not p19) p26 (not p16)) (or p7 p34 p0) (or (not p18) p35 (not p37)) (or p35 p26 (not p38)) (or p6 (not p37) (not p25)) (or p28 p32 (not p18)) (or (not p38) p24 (not p24)) (or (not p14) (not p2) (not p30)) (or (not p13) (not p35) (not p24)) (or p20 (not p6) (not p17)) (or p37 (not p35) p7) (or p35 p0 (not p35)) (or (not p22) (not p30) (not p26)) (or p28 (not p34) p4) (or (not p32) (not p33) p21) (or p15 p39 (not p38)) (or p19 (not p17) p3) (or p38 (not p28) (not p26)) (or p26 (not p5) p10) (or p35 p22 (not p31)) (or (not p28) p10 p28) (or p26 p31 (not p10)) (or (not p33) p29 (not p31)) (or (not p8) (not p4) p12) (or (not p3) p13 (not p14)) (or (not p36) (not p35) p29) (or p38 p28 (not p35)) (or (not p19) p8 p5) (or p9 p4 (not p32)) (or (not p13) p2 p10) (or p16 (not p35) p28) (or (not p30) (not p3) (not p6)) (or p31 (not p19) (not p27)) (or (not p7) (not p28) (not p23)) (or p34 p24 p35) (or (not p38) p11 (not p26)) (or p1 (not p9) (not p6)) (or p25 (not p9) (not p24)) (or (not p13) p8 p31) (or p10 (not p30) (not p17)) (or p13 p33 p13) (or p12 p20 p7) (or (not p33) (not p0) p33) (or p30 (not p8) (not p37)) (or p25 p6 (not p36)) (or (not p25) p6 (not p15)) (or p38 (not p38) p32) (or p36 (not p17) (not p6)) (or (not p1) p29 p9) (or p0 p38 (not p21)) (or (not p15) (not p30) p3) (or p20 (not p39) (not p32)) (or p23 p12 p15) (or p38 (not p10) p27) (or (not p22) (not p15) p12) (or p32 p27 p38) (or (not p4) (not p25) (not p21)) (or (not p2) p34 p19) (or p2 p29 p5) (or p38 (not p28) (not p38)) (or (not p37) (not p6) p30) (or p5 p10 (not p6)) (or (not p37) p25 p18) (or p18 (not p38) (not p16)) (or p16 p16 (not p3)) (or p30 (not p9) (not p16)) (or p11 (not p4) p6) (or p23 p6 p19) (or (not p36) (not p8) p12) (or p38 p3 (not p17)) (or (not p22) p26 (not p26)) (or p26 (not p27) p22) (or (not p16) (not p1) p22) (or p21 (not p7) p32) (or (not p21) p3 (not p1)) (or p35 (not p11) (not p8)) (or p3 (not p0) p37) (or p25 (not p22) (not p23)) (or (not p3) (not p36) (not p39)) (or p25 (not p0) p20) (or p3 (not p18) (not p26)) (or (not p14) p9 (not p38)) (or (not p3) p35 (not p16)) (or p8 (not p30) (not p13)) (or p8 p23 (not p39)) (or p23 (not p29) p22) (or p33 (not p1) p21) (or (not p34) (not p3) (not p1)) (or (not p8) (not p29) (not p22)) (or (not p33) (not p37) p27) (or (not p29) p9 (not p1)) (or (not p39) p26 p5) (or (not p5) (not p32) (not p2)) (or p15 p4 (not p22)) (or p17 p14 p2) (or (not p34) p12 p5) (or p25 (not p29) (not p20)) (or (not p23) p21 (not p5)) (or p10 (not p10) (not p3)) (or (not p26) (not p20) (not p14)) (or p27 (not p6) (not p15)) (or (not p39) p9 (not p16)) (or p11 p27 (not p23)) (or p1 (not p31) p10) (or p11 p0 (not p22)) (or p4 p37 p34) (or (not p29) p23 p33) (or p5 (not p30) (not p6)) (or p1 (not p0) (not p2)) (or p32 p13 p33) (or p35 (not p23) (not p31)) (or (not p32) p24 (not p19)) (or (not p3) p37 p26) (or (not p29) (not p0) p19) (or (not p27) (not p33) p36) (or (not p37) (not p15) (not p8)) (or (not p12) (not p7) (not p2)) (or (not p35) p34 (not p29)) (or p39 p39 (not p37)) (or (not p26) p22 (not p9)) (or p33 (not p38) p29) (or p3 (not p0) p18) (or p33 (not p37) p36) (or (not p12) p5 p14) (or (not p38) p30 (not p23)) (or p6 p19 (not p37)) (or (not p30) (not p7) (not p17)) (or p28 p34 (not p25)) (or p39 (not p14) p10) (or (not p31) (not p20) (not p20)) (or (not p9) (not p31) p14) (or p4 (not p20) (not p21)) (or (not p18) (not p15) (not p26)) (or p24 (not p16) (not p18)) (or (not p25) p13 p34) (or p13 p5 (not p32)) (or (not p9) p18 (not p27)) (or p28 p0 p0) (or (not p13) p33 (not p30)) (or (not p0) p4 p29) (or p13 (not p11) (not p39)) (or p2 (not p31) p24) (or p4 p20 p27) (or p38 (not p22) (not p8)) (or (not p29) p26 p29) (or (not p25) p17 p14) (or p26 (not p28) (not p37)) (or p23 p31 (not p38)) (or p29 (not p17) p36) (or p5 (not p13) (not p29)) (or p4 p21 (not p33)) (or p20 (not p34) p24) (or (not p11) (not p32) (not p15)) (or (not p37) p38 p10) (or p20 (not p36) (not p26)) (or p25 p25 (not p12)) (or (not p13) p12 (not p10)) (or p7 p12 (not p16)) (or p25 p30 (not p9)) (or p2 p2 p1) (or (not p29) (not p6) p17) (or p1 (not p33) p32) (or p7 (not p31) (not p19)) (or p16 (not p0) p13) (or (not p21) (not p24) (not p33)) (or (not p22) (not p2) (not p19)) (or p12 (not p21) p29) (or p24 p10 p4))
)
(check-sat)
(get-model)
